language ESSENCE' 1.0

letting jobs = 102
letting horizon = 812
letting resourcesRenew = 2
letting resourcesNonrenew = 2
letting resourceLimits = [14, 14, 483, 461]
letting successors = [[2, 3, 4, 5, 6, 7, 8, 9, 10, 11, 12, 15, 21], [44, 41, 36, 30, 28, 22, 20, 18, 17], [58, 49, 47, 40, 38, 37, 36, 35, 34, 31, 29, 23, 19], [44, 32, 22, 14, 13], [63, 51, 45, 42, 41, 39, 37, 34, 33, 31, 30, 24], [63, 51, 42, 37, 33, 31, 28, 16], [64, 62, 59, 55, 53, 47, 45, 43, 42, 41, 34, 26], [63, 58, 55, 51, 45, 37, 34, 25], [67, 63, 58, 54, 51, 50, 49, 47, 45, 44, 42, 33, 28], [62, 58, 56, 50, 49, 48, 46, 45, 44, 31, 29, 27], [63, 58, 52, 51, 50, 45, 42, 39, 31, 28], [63, 62, 59, 58, 55, 52, 51, 45, 41, 34, 32], [67, 59, 55, 53, 48, 43, 37, 26], [63, 50, 49, 48, 47, 45, 43, 31, 28], [76, 63, 62, 61, 60, 59, 58, 56, 53, 52, 51, 45, 42, 29], [65, 64, 60, 59, 56, 53, 52, 50, 47, 45, 43, 30], [67, 64, 59, 58, 55, 52, 51, 50, 48, 43, 42, 38], [63, 62, 60, 56, 55, 51, 50, 49, 47, 46, 43, 31], [67, 62, 56, 55, 54, 51, 50, 48, 45, 43, 42, 33], [67, 60, 54, 49, 48, 43, 37, 33], [67, 66, 54, 51, 50, 33, 28], [74, 67, 62, 60, 59, 56, 55, 50, 48, 43, 33], [76, 67, 66, 64, 62, 61, 60, 59, 55, 54, 53, 50, 46, 45, 42], [101, 74, 71, 70, 67, 62, 61, 59, 53, 50, 47, 44, 43], [81, 75, 67, 62, 61, 59, 56, 54, 53, 50, 43, 42], [66, 65, 63, 56, 51, 50, 30], [76, 75, 64, 63, 61, 54, 53, 51, 42], [80, 76, 74, 64, 62, 61, 60, 59, 56, 55, 46], [101, 81, 75, 72, 71, 69, 67, 66, 65, 64, 57, 55, 54], [101, 79, 75, 70, 61, 58, 54, 49, 46], [101, 81, 75, 73, 72, 71, 67, 66, 65, 59, 54, 53], [101, 76, 75, 72, 70, 65, 64, 61, 56, 54, 53], [101, 76, 75, 65, 64, 61, 57, 53, 46], [75, 61, 60, 48, 46], [83, 75, 74, 73, 70, 66, 56, 51, 50], [97, 83, 82, 81, 80, 76, 75, 74, 72, 71, 70, 69, 68, 65, 61], [100, 81, 76, 70, 64, 62, 52, 50], [101, 76, 75, 65, 63, 56, 54, 53], [101, 81, 67, 66, 56, 55, 53, 49], [101, 75, 73, 70, 51, 50], [100, 81, 70, 67, 61, 50], [101, 95, 94, 83, 80, 74, 71, 70, 69, 68, 65], [100, 99, 98, 96, 93, 79, 76, 72, 66, 57], [96, 95, 94, 73, 68, 66, 65, 64], [101, 98, 97, 96, 95, 94, 91, 90, 89, 83, 82, 78, 77, 75, 74, 71, 70], [100, 98, 97, 94, 83, 82, 81, 73, 72, 71, 69, 68], [100, 99, 98, 96, 95, 94, 83, 82, 81, 79, 75, 73, 69], [96, 90, 83, 76, 71, 70, 69, 66], [100, 99, 98, 97, 96, 93, 91, 88, 82, 80, 77, 76, 68], [98, 93, 82, 80, 79, 69, 57], [100, 97, 96, 94, 89, 81, 79, 77, 72, 71], [95, 94, 92, 91, 83, 82, 80, 78, 74, 73, 69], [100, 98, 95, 91, 88, 82, 80, 69, 68], [99, 97, 96, 95, 92, 90, 86, 83, 80, 74], [94, 92, 89, 83, 79, 78, 70], [100, 94, 92, 91, 90, 89, 88, 78, 69], [97, 95, 91, 88, 77, 68], [97, 96, 94, 91, 90, 84, 78, 77, 74], [98, 94, 93, 88, 86, 68], [101, 99, 96, 95, 94, 91, 88, 87, 84, 79], [96, 95, 94, 93, 89, 85, 77, 73], [96, 95, 93, 91, 89, 84, 79, 78], [95, 94, 89, 88, 85, 82, 81, 77], [99, 98, 97, 93, 92, 90, 88, 86, 85, 84], [100, 98, 91, 85, 79, 77], [91, 86, 82, 80, 78], [97, 92, 91, 89, 85, 83], [92, 90, 89, 84, 78], [85, 84, 77], [99, 88, 85, 84], [93, 92, 88, 86], [95, 86, 85, 84], [88, 86, 84], [88, 87, 85], [93, 92, 87], [94, 87, 84], [87, 86], [87, 85], [90, 86], [89, 84], [91, 84], [84], [93], [102], [102], [102], [102], [102], [102], [102], [102], [102], [102], [102], [102], [102], [102], [102], [102], [102], [102], []]
letting durations = [[0], [3, 5, 8], [2, 2, 5], [1, 9, 10], [1, 1, 10], [1, 4, 5], [5, 8, 10], [7, 9, 10], [1, 4, 5], [3, 6, 10], [1, 2, 4], [4, 6, 10], [2, 4, 5], [2, 6, 8], [5, 8, 9], [3, 6, 9], [5, 7, 10], [2, 6, 10], [1, 3, 6], [7, 8, 9], [1, 7, 8], [2, 3, 6], [4, 6, 10], [1, 7, 8], [1, 2, 7], [4, 8, 9], [5, 8, 9], [5, 6, 8], [5, 6, 9], [2, 4, 7], [3, 7, 8], [6, 9, 10], [4, 5, 9], [3, 4, 7], [2, 5, 10], [1, 8, 9], [3, 6, 7], [3, 3, 6], [3, 4, 6], [1, 2, 4], [6, 7, 8], [1, 6, 7], [3, 7, 10], [1, 6, 10], [8, 9, 10], [7, 8, 9], [1, 2, 10], [2, 8, 10], [1, 3, 6], [3, 4, 4], [1, 2, 9], [3, 3, 4], [4, 7, 9], [1, 2, 9], [1, 5, 9], [3, 5, 10], [1, 4, 9], [2, 5, 9], [2, 9, 10], [1, 4, 10], [2, 3, 10], [2, 4, 8], [9, 10, 10], [2, 5, 6], [2, 3, 9], [3, 5, 5], [3, 4, 6], [4, 5, 9], [1, 6, 7], [8, 9, 10], [2, 5, 6], [6, 6, 10], [1, 3, 8], [4, 6, 9], [1, 2, 3], [3, 3, 4], [2, 2, 4], [5, 7, 8], [3, 9, 10], [2, 8, 10], [1, 3, 4], [1, 4, 8], [1, 7, 8], [3, 6, 9], [6, 8, 9], [1, 3, 7], [1, 5, 10], [4, 5, 8], [3, 8, 10], [2, 3, 10], [1, 9, 10], [3, 8, 10], [2, 7, 9], [1, 6, 10], [5, 7, 8], [2, 2, 5], [3, 4, 9], [3, 6, 10], [1, 5, 10], [2, 3, 4], [2, 7, 10], [0]]
letting resourceUsage = [[[0, 0, 0, 0]], [[5, 0, 8, 7], [5, 0, 6, 7], [5, 0, 6, 6]], [[4, 0, 9, 7], [0, 4, 9, 5], [0, 3, 8, 3]], [[0, 5, 8, 8], [0, 4, 7, 7], [3, 0, 5, 5]], [[0, 4, 9, 8], [3, 0, 7, 8], [3, 0, 7, 6]], [[2, 0, 7, 5], [2, 0, 7, 4], [0, 3, 3, 4]], [[0, 4, 7, 9], [4, 0, 3, 9], [4, 0, 2, 9]], [[4, 0, 8, 1], [3, 0, 7, 1], [3, 0, 6, 1]], [[0, 3, 6, 5], [3, 0, 5, 5], [1, 0, 5, 5]], [[0, 4, 8, 6], [0, 4, 7, 5], [3, 0, 7, 5]], [[3, 0, 5, 5], [2, 0, 3, 5], [1, 0, 3, 5]], [[2, 0, 1, 4], [0, 1, 1, 4], [0, 1, 1, 1]], [[5, 0, 6, 8], [0, 1, 4, 7], [0, 1, 2, 5]], [[1, 0, 5, 9], [0, 1, 3, 7], [1, 0, 3, 7]], [[0, 3, 8, 3], [4, 0, 8, 3], [0, 2, 8, 2]], [[3, 0, 5, 6], [2, 0, 5, 3], [0, 3, 1, 1]], [[0, 4, 5, 8], [2, 0, 4, 5], [0, 2, 2, 5]], [[3, 0, 10, 8], [0, 2, 9, 5], [0, 2, 9, 3]], [[3, 0, 5, 2], [3, 0, 5, 1], [0, 1, 4, 1]], [[0, 2, 8, 2], [0, 1, 8, 2], [0, 1, 8, 1]], [[4, 0, 9, 4], [0, 2, 8, 4], [2, 0, 8, 3]], [[2, 0, 6, 6], [0, 3, 4, 4], [2, 0, 1, 4]], [[0, 4, 9, 8], [3, 0, 9, 7], [1, 0, 9, 4]], [[0, 3, 6, 9], [0, 3, 6, 5], [0, 3, 5, 1]], [[5, 0, 7, 3], [0, 4, 7, 2], [0, 4, 6, 2]], [[0, 4, 1, 7], [0, 2, 1, 7], [5, 0, 1, 5]], [[4, 0, 7, 9], [0, 5, 7, 6], [4, 0, 7, 5]], [[1, 0, 2, 3], [1, 0, 2, 2], [0, 2, 2, 2]], [[0, 5, 9, 3], [0, 3, 9, 3], [0, 3, 9, 2]], [[0, 2, 6, 3], [3, 0, 6, 2], [1, 0, 6, 2]], [[0, 5, 8, 4], [2, 0, 6, 2], [0, 5, 6, 2]], [[0, 5, 4, 8], [0, 3, 3, 8], [0, 3, 2, 7]], [[0, 5, 3, 4], [0, 4, 3, 4], [4, 0, 2, 4]], [[5, 0, 5, 7], [4, 0, 3, 5], [3, 0, 2, 5]], [[3, 0, 5, 6], [3, 0, 5, 5], [3, 0, 5, 3]], [[1, 0, 4, 5], [0, 4, 3, 4], [1, 0, 2, 1]], [[4, 0, 2, 8], [2, 0, 1, 8], [0, 3, 1, 7]], [[0, 4, 3, 9], [4, 0, 2, 9], [4, 0, 2, 8]], [[1, 0, 6, 7], [1, 0, 5, 5], [1, 0, 4, 4]], [[0, 2, 3, 9], [0, 1, 3, 7], [2, 0, 3, 5]], [[4, 0, 7, 8], [0, 3, 7, 8], [0, 1, 6, 7]], [[0, 3, 10, 8], [0, 2, 9, 8], [2, 0, 8, 5]], [[4, 0, 7, 1], [0, 3, 4, 1], [4, 0, 3, 1]], [[4, 0, 9, 4], [2, 0, 7, 3], [1, 0, 3, 2]], [[5, 0, 6, 3], [3, 0, 6, 3], [0, 3, 3, 3]], [[0, 3, 8, 9], [3, 0, 6, 9], [2, 0, 6, 9]], [[4, 0, 8, 7], [0, 1, 8, 6], [0, 1, 6, 4]], [[0, 5, 5, 7], [3, 0, 4, 6], [3, 0, 4, 5]], [[2, 0, 6, 4], [0, 1, 6, 2], [2, 0, 2, 2]], [[0, 2, 6, 8], [0, 2, 5, 8], [5, 0, 4, 8]], [[4, 0, 6, 9], [3, 0, 5, 8], [3, 0, 2, 7]], [[1, 0, 3, 8], [0, 3, 2, 7], [0, 2, 2, 5]], [[4, 0, 4, 6], [4, 0, 3, 5], [0, 2, 2, 5]], [[0, 5, 8, 8], [0, 3, 7, 6], [1, 0, 6, 3]], [[0, 5, 2, 9], [0, 2, 1, 8], [1, 0, 1, 7]], [[0, 2, 8, 5], [0, 1, 7, 5], [0, 1, 6, 5]], [[2, 0, 10, 1], [0, 2, 8, 1], [0, 1, 7, 1]], [[0, 4, 6, 5], [1, 0, 5, 5], [1, 0, 5, 4]], [[0, 4, 5, 4], [2, 0, 2, 5], [2, 0, 2, 4]], [[0, 3, 7, 4], [0, 2, 6, 2], [0, 2, 5, 1]], [[5, 0, 2, 6], [0, 3, 2, 5], [3, 0, 2, 5]], [[5, 0, 6, 4], [0, 3, 4, 3], [0, 2, 4, 2]], [[0, 3, 8, 5], [0, 2, 4, 3], [4, 0, 3, 2]], [[0, 5, 4, 9], [3, 0, 3, 4], [0, 4, 3, 4]], [[5, 0, 8, 10], [0, 3, 7, 10], [3, 0, 5, 10]], [[3, 0, 10, 4], [2, 0, 4, 3], [0, 2, 4, 3]], [[5, 0, 6, 4], [4, 0, 6, 3], [4, 0, 4, 3]], [[4, 0, 5, 7], [4, 0, 4, 3], [4, 0, 4, 1]], [[0, 5, 8, 5], [0, 3, 7, 4], [0, 2, 5, 4]], [[4, 0, 6, 10], [2, 0, 6, 9], [2, 0, 5, 8]], [[0, 5, 8, 4], [0, 3, 7, 2], [0, 2, 6, 2]], [[3, 0, 9, 9], [0, 2, 7, 6], [0, 2, 3, 4]], [[0, 3, 2, 7], [4, 0, 2, 7], [0, 2, 2, 6]], [[5, 0, 10, 5], [0, 2, 9, 4], [0, 2, 8, 2]], [[2, 0, 8, 8], [0, 4, 7, 8], [0, 3, 2, 8]], [[0, 2, 6, 10], [1, 0, 4, 8], [0, 2, 3, 7]], [[3, 0, 6, 9], [0, 1, 5, 9], [1, 0, 5, 9]], [[0, 3, 8, 7], [0, 3, 7, 7], [0, 3, 7, 5]], [[4, 0, 9, 7], [0, 2, 9, 5], [0, 1, 9, 5]], [[0, 3, 5, 8], [0, 3, 4, 7], [3, 0, 4, 7]], [[1, 0, 8, 9], [1, 0, 8, 8], [0, 2, 8, 9]], [[5, 0, 7, 10], [0, 1, 5, 6], [4, 0, 5, 5]], [[0, 3, 2, 6], [2, 0, 1, 2], [1, 0, 1, 1]], [[3, 0, 10, 8], [3, 0, 7, 5], [0, 3, 1, 4]], [[0, 3, 6, 4], [0, 3, 5, 3], [5, 0, 5, 2]], [[0, 5, 2, 7], [5, 0, 1, 6], [0, 5, 1, 4]], [[0, 3, 3, 2], [0, 2, 3, 2], [0, 2, 3, 1]], [[0, 3, 5, 5], [0, 3, 4, 4], [3, 0, 4, 4]], [[5, 0, 9, 7], [0, 1, 6, 6], [0, 1, 2, 6]], [[3, 0, 8, 6], [2, 0, 7, 6], [1, 0, 7, 2]], [[0, 2, 8, 4], [0, 1, 8, 4], [0, 1, 8, 3]], [[0, 2, 4, 6], [4, 0, 4, 6], [0, 2, 4, 1]], [[2, 0, 8, 7], [0, 2, 7, 7], [2, 0, 7, 7]], [[3, 0, 4, 2], [2, 0, 4, 2], [0, 4, 3, 2]], [[3, 0, 4, 6], [2, 0, 3, 3], [0, 4, 1, 1]], [[0, 4, 10, 5], [2, 0, 10, 4], [0, 4, 10, 4]], [[5, 0, 7, 3], [4, 0, 6, 2], [0, 1, 6, 2]], [[4, 0, 6, 10], [4, 0, 5, 8], [4, 0, 5, 6]], [[0, 2, 7, 3], [0, 2, 4, 2], [0, 2, 3, 2]], [[5, 0, 5, 6], [3, 0, 5, 5], [2, 0, 5, 3]], [[4, 0, 5, 6], [2, 0, 5, 3], [0, 1, 3, 2]], [[0, 0, 0, 0]]]
